c sudoku, order: 9, holes: 56
c 
c .6.5.1.9.
c 1...9..53
c 9....7...
c .4.8...7.
c ......5.8
c .817.5.3.
c ....5.2..
c .........
c .76..8...
c 
p cnf 232 1901
-1 -2 0
-1 -3 0
-1 -4 0
-1 -5 0
-2 -3 0
-2 -4 0
-2 -5 0
-3 -4 0
-3 -5 0
-4 -5 0
-6 -7 0
-6 -8 0
-6 -9 0
-6 -10 0
-7 -8 0
-7 -9 0
-7 -10 0
-8 -9 0
-8 -10 0
-9 -10 0
-11 -12 0
-11 -13 0
-11 -14 0
-12 -13 0
-12 -14 0
-13 -14 0
-15 -16 0
-15 -17 0
-16 -17 0
-18 -19 0
-18 -20 0
-19 -20 0
-22 -23 0
-22 -24 0
-22 -25 0
-23 -24 0
-23 -25 0
-24 -25 0
-26 -27 0
-26 -28 0
-27 -28 0
-29 -30 0
-29 -31 0
-30 -31 0
-32 -33 0
-32 -34 0
-32 -35 0
-33 -34 0
-33 -35 0
-34 -35 0
-36 -37 0
-36 -38 0
-37 -38 0
-39 -40 0
-39 -41 0
-39 -42 0
-39 -43 0
-40 -41 0
-40 -42 0
-40 -43 0
-41 -42 0
-41 -43 0
-42 -43 0
-44 -45 0
-44 -46 0
-44 -47 0
-45 -46 0
-45 -47 0
-46 -47 0
-48 -49 0
-48 -50 0
-48 -51 0
-48 -52 0
-49 -50 0
-49 -51 0
-49 -52 0
-50 -51 0
-50 -52 0
-51 -52 0
-53 -54 0
-53 -55 0
-53 -56 0
-54 -55 0
-54 -56 0
-55 -56 0
-57 -58 0
-57 -59 0
-57 -60 0
-57 -61 0
-58 -59 0
-58 -60 0
-58 -61 0
-59 -60 0
-59 -61 0
-60 -61 0
-62 -63 0
-62 -64 0
-62 -65 0
-63 -64 0
-63 -65 0
-64 -65 0
-66 -67 0
-66 -68 0
-66 -69 0
-67 -68 0
-67 -69 0
-68 -69 0
-70 -71 0
-70 -72 0
-70 -73 0
-71 -72 0
-71 -73 0
-72 -73 0
-74 -75 0
-74 -76 0
-74 -77 0
-75 -76 0
-75 -77 0
-76 -77 0
-78 -79 0
-78 -80 0
-78 -81 0
-79 -80 0
-79 -81 0
-80 -81 0
-82 -83 0
-82 -84 0
-83 -84 0
-85 -86 0
-85 -87 0
-85 -88 0
-86 -87 0
-86 -88 0
-87 -88 0
-89 -90 0
-89 -91 0
-89 -92 0
-90 -91 0
-90 -92 0
-91 -92 0
-93 -94 0
-93 -95 0
-94 -95 0
-96 -97 0
-96 -98 0
-96 -99 0
-97 -98 0
-97 -99 0
-98 -99 0
-100 -101 0
-100 -102 0
-100 -103 0
-100 -104 0
-100 -105 0
-101 -102 0
-101 -103 0
-101 -104 0
-101 -105 0
-102 -103 0
-102 -104 0
-102 -105 0
-103 -104 0
-103 -105 0
-104 -105 0
-106 -107 0
-106 -108 0
-106 -109 0
-106 -110 0
-107 -108 0
-107 -109 0
-107 -110 0
-108 -109 0
-108 -110 0
-109 -110 0
-111 -112 0
-111 -113 0
-111 -114 0
-111 -115 0
-112 -113 0
-112 -114 0
-112 -115 0
-113 -114 0
-113 -115 0
-114 -115 0
-116 -117 0
-116 -118 0
-116 -119 0
-117 -118 0
-117 -119 0
-118 -119 0
-120 -121 0
-122 -123 0
-122 -124 0
-123 -124 0
-125 -126 0
-125 -127 0
-126 -127 0
-128 -129 0
-128 -130 0
-128 -131 0
-129 -130 0
-129 -131 0
-130 -131 0
-132 -133 0
-132 -134 0
-133 -134 0
-135 -136 0
-135 -137 0
-136 -137 0
-138 -139 0
-138 -140 0
-138 -141 0
-139 -140 0
-139 -141 0
-140 -141 0
-142 -143 0
-142 -144 0
-142 -145 0
-142 -146 0
-143 -144 0
-143 -145 0
-143 -146 0
-144 -145 0
-144 -146 0
-145 -146 0
-147 -148 0
-147 -149 0
-147 -150 0
-148 -149 0
-148 -150 0
-149 -150 0
-151 -152 0
-151 -153 0
-151 -154 0
-152 -153 0
-152 -154 0
-153 -154 0
-155 -156 0
-155 -157 0
-155 -158 0
-155 -159 0
-156 -157 0
-156 -158 0
-156 -159 0
-157 -158 0
-157 -159 0
-158 -159 0
-160 -161 0
-160 -162 0
-160 -163 0
-160 -164 0
-161 -162 0
-161 -163 0
-161 -164 0
-162 -163 0
-162 -164 0
-163 -164 0
-165 -166 0
-165 -167 0
-165 -168 0
-165 -169 0
-166 -167 0
-166 -168 0
-166 -169 0
-167 -168 0
-167 -169 0
-168 -169 0
-170 -171 0
-170 -172 0
-170 -173 0
-170 -174 0
-170 -175 0
-171 -172 0
-171 -173 0
-171 -174 0
-171 -175 0
-172 -173 0
-172 -174 0
-172 -175 0
-173 -174 0
-173 -175 0
-174 -175 0
-176 -177 0
-176 -178 0
-176 -179 0
-176 -180 0
-176 -181 0
-177 -178 0
-177 -179 0
-177 -180 0
-177 -181 0
-178 -179 0
-178 -180 0
-178 -181 0
-179 -180 0
-179 -181 0
-180 -181 0
-182 -183 0
-182 -184 0
-182 -185 0
-182 -186 0
-182 -187 0
-183 -184 0
-183 -185 0
-183 -186 0
-183 -187 0
-184 -185 0
-184 -186 0
-184 -187 0
-185 -186 0
-185 -187 0
-186 -187 0
-188 -189 0
-188 -190 0
-188 -191 0
-188 -192 0
-189 -190 0
-189 -191 0
-189 -192 0
-190 -191 0
-190 -192 0
-191 -192 0
-193 -194 0
-193 -195 0
-193 -196 0
-193 -197 0
-193 -198 0
-193 -199 0
-194 -195 0
-194 -196 0
-194 -197 0
-194 -198 0
-194 -199 0
-195 -196 0
-195 -197 0
-195 -198 0
-195 -199 0
-196 -197 0
-196 -198 0
-196 -199 0
-197 -198 0
-197 -199 0
-198 -199 0
-200 -201 0
-200 -202 0
-200 -203 0
-201 -202 0
-201 -203 0
-202 -203 0
-204 -205 0
-204 -206 0
-204 -207 0
-204 -208 0
-204 -209 0
-205 -206 0
-205 -207 0
-205 -208 0
-205 -209 0
-206 -207 0
-206 -208 0
-206 -209 0
-207 -208 0
-207 -209 0
-208 -209 0
-210 -211 0
-210 -212 0
-210 -213 0
-211 -212 0
-211 -213 0
-212 -213 0
-214 -215 0
-214 -216 0
-214 -217 0
-214 -218 0
-215 -216 0
-215 -217 0
-215 -218 0
-216 -217 0
-216 -218 0
-217 -218 0
-219 -220 0
-219 -221 0
-219 -222 0
-220 -221 0
-220 -222 0
-221 -222 0
-223 -224 0
-223 -225 0
-223 -226 0
-224 -225 0
-224 -226 0
-225 -226 0
-227 -228 0
-229 -230 0
-229 -231 0
-229 -232 0
-230 -231 0
-230 -232 0
-231 -232 0
-1 -6 0
-1 -11 0
-1 -18 0
-6 -11 0
-6 -18 0
-11 -18 0
-2 -7 0
-2 -12 0
-7 -12 0
-3 -8 0
-3 -13 0
-3 -15 0
-3 -19 0
-8 -13 0
-8 -15 0
-8 -19 0
-13 -15 0
-13 -19 0
-15 -19 0
-4 -9 0
-4 -16 0
-4 -20 0
-9 -16 0
-9 -20 0
-16 -20 0
-5 -10 0
-5 -14 0
-5 -17 0
-10 -14 0
-10 -17 0
-14 -17 0
-21 -22 0
-21 -26 0
-21 -29 0
-22 -26 0
-22 -29 0
-26 -29 0
-23 -27 0
-23 -30 0
-23 -32 0
-27 -30 0
-27 -32 0
-30 -32 0
-28 -31 0
-28 -33 0
-31 -33 0
-24 -34 0
-25 -35 0
-53 -57 0
-53 -62 0
-57 -62 0
-36 -39 0
-36 -44 0
-36 -48 0
-36 -58 0
-36 -63 0
-39 -44 0
-39 -48 0
-39 -58 0
-39 -63 0
-44 -48 0
-44 -58 0
-44 -63 0
-48 -58 0
-48 -63 0
-58 -63 0
-37 -40 0
-37 -45 0
-37 -49 0
-40 -45 0
-40 -49 0
-45 -49 0
-41 -46 0
-41 -50 0
-41 -54 0
-41 -59 0
-41 -64 0
-46 -50 0
-46 -54 0
-46 -59 0
-46 -64 0
-50 -54 0
-50 -59 0
-50 -64 0
-54 -59 0
-54 -64 0
-59 -64 0
-38 -42 0
-47 -51 0
-47 -55 0
-47 -60 0
-47 -65 0
-51 -55 0
-51 -60 0
-51 -65 0
-55 -60 0
-55 -65 0
-60 -65 0
-43 -52 0
-43 -56 0
-43 -61 0
-52 -56 0
-52 -61 0
-56 -61 0
-74 -82 0
-74 -85 0
-82 -85 0
-66 -70 0
-66 -75 0
-66 -78 0
-66 -86 0
-70 -75 0
-70 -78 0
-70 -86 0
-75 -78 0
-75 -86 0
-78 -86 0
-67 -71 0
-67 -76 0
-67 -79 0
-71 -76 0
-71 -79 0
-76 -79 0
-68 -72 0
-69 -77 0
-69 -80 0
-69 -83 0
-69 -87 0
-77 -80 0
-77 -83 0
-77 -87 0
-80 -83 0
-80 -87 0
-83 -87 0
-73 -81 0
-73 -84 0
-73 -88 0
-81 -84 0
-81 -88 0
-84 -88 0
-100 -106 0
-100 -116 0
-106 -116 0
-89 -93 0
-89 -96 0
-89 -101 0
-89 -107 0
-89 -111 0
-89 -117 0
-93 -96 0
-93 -101 0
-93 -107 0
-93 -111 0
-93 -117 0
-96 -101 0
-96 -107 0
-96 -111 0
-96 -117 0
-101 -107 0
-101 -111 0
-101 -117 0
-107 -111 0
-107 -117 0
-111 -117 0
-90 -94 0
-90 -97 0
-90 -102 0
-90 -108 0
-90 -112 0
-94 -97 0
-94 -102 0
-94 -108 0
-94 -112 0
-97 -102 0
-97 -108 0
-97 -112 0
-102 -108 0
-102 -112 0
-108 -112 0
-103 -109 0
-103 -113 0
-103 -118 0
-109 -113 0
-109 -118 0
-113 -118 0
-91 -104 0
-91 -110 0
-91 -114 0
-91 -119 0
-104 -110 0
-104 -114 0
-104 -119 0
-110 -114 0
-110 -119 0
-114 -119 0
-92 -98 0
-95 -99 0
-95 -105 0
-95 -115 0
-99 -105 0
-99 -115 0
-105 -115 0
-120 -122 0
-120 -128 0
-122 -128 0
-123 -125 0
-123 -129 0
-125 -129 0
-121 -124 0
-121 -126 0
-121 -130 0
-124 -126 0
-124 -130 0
-126 -130 0
-127 -131 0
-135 -142 0
-135 -151 0
-135 -155 0
-142 -151 0
-142 -155 0
-151 -155 0
-132 -136 0
-132 -138 0
-132 -143 0
-132 -147 0
-136 -138 0
-136 -143 0
-136 -147 0
-138 -143 0
-138 -147 0
-143 -147 0
-133 -139 0
-133 -144 0
-133 -148 0
-133 -152 0
-133 -156 0
-139 -144 0
-139 -148 0
-139 -152 0
-139 -156 0
-144 -148 0
-144 -152 0
-144 -156 0
-148 -152 0
-148 -156 0
-152 -156 0
-145 -149 0
-145 -153 0
-145 -157 0
-149 -153 0
-149 -157 0
-153 -157 0
-134 -140 0
-134 -154 0
-140 -154 0
-137 -141 0
-137 -146 0
-137 -150 0
-137 -159 0
-141 -146 0
-141 -150 0
-141 -159 0
-146 -150 0
-146 -159 0
-150 -159 0
-165 -176 0
-165 -182 0
-165 -193 0
-165 -200 0
-165 -204 0
-176 -182 0
-176 -193 0
-176 -200 0
-176 -204 0
-182 -193 0
-182 -200 0
-182 -204 0
-193 -200 0
-193 -204 0
-200 -204 0
-160 -166 0
-160 -170 0
-160 -177 0
-160 -183 0
-160 -188 0
-166 -170 0
-166 -177 0
-166 -183 0
-166 -188 0
-170 -177 0
-170 -183 0
-170 -188 0
-177 -183 0
-177 -188 0
-183 -188 0
-161 -167 0
-161 -171 0
-161 -178 0
-161 -184 0
-161 -189 0
-161 -194 0
-167 -171 0
-167 -178 0
-167 -184 0
-167 -189 0
-167 -194 0
-171 -178 0
-171 -184 0
-171 -189 0
-171 -194 0
-178 -184 0
-178 -189 0
-178 -194 0
-184 -189 0
-184 -194 0
-189 -194 0
-162 -172 0
-162 -179 0
-162 -185 0
-162 -190 0
-162 -195 0
-162 -201 0
-162 -205 0
-172 -179 0
-172 -185 0
-172 -190 0
-172 -195 0
-172 -201 0
-172 -205 0
-179 -185 0
-179 -190 0
-179 -195 0
-179 -201 0
-179 -205 0
-185 -190 0
-185 -195 0
-185 -201 0
-185 -205 0
-190 -195 0
-190 -201 0
-190 -205 0
-195 -201 0
-195 -205 0
-201 -205 0
-163 -168 0
-163 -173 0
-163 -206 0
-168 -173 0
-168 -206 0
-173 -206 0
-180 -186 0
-180 -191 0
-180 -196 0
-180 -202 0
-180 -207 0
-186 -191 0
-186 -196 0
-186 -202 0
-186 -207 0
-191 -196 0
-191 -202 0
-191 -207 0
-196 -202 0
-196 -207 0
-202 -207 0
-187 -197 0
-187 -208 0
-197 -208 0
-164 -174 0
-164 -198 0
-164 -203 0
-174 -198 0
-174 -203 0
-198 -203 0
-169 -175 0
-169 -181 0
-169 -192 0
-169 -199 0
-169 -209 0
-175 -181 0
-175 -192 0
-175 -199 0
-175 -209 0
-181 -192 0
-181 -199 0
-181 -209 0
-192 -199 0
-192 -209 0
-199 -209 0
-214 -219 0
-214 -223 0
-214 -227 0
-214 -229 0
-219 -223 0
-219 -227 0
-219 -229 0
-223 -227 0
-223 -229 0
-227 -229 0
-210 -215 0
-210 -220 0
-215 -220 0
-211 -216 0
-211 -221 0
-211 -224 0
-216 -221 0
-216 -224 0
-221 -224 0
-212 -217 0
-212 -222 0
-212 -225 0
-212 -228 0
-212 -230 0
-217 -222 0
-217 -225 0
-217 -228 0
-217 -230 0
-222 -225 0
-222 -228 0
-222 -230 0
-225 -228 0
-225 -230 0
-228 -230 0
-213 -231 0
-218 -226 0
-218 -232 0
-226 -232 0
-1 -66 0
-1 -89 0
-1 -120 0
-1 -160 0
-1 -210 0
-66 -89 0
-66 -120 0
-66 -160 0
-66 -210 0
-89 -120 0
-89 -160 0
-89 -210 0
-120 -160 0
-120 -210 0
-160 -210 0
-2 -67 0
-2 -90 0
-2 -132 0
-2 -161 0
-2 -211 0
-67 -90 0
-67 -132 0
-67 -161 0
-67 -211 0
-90 -132 0
-90 -161 0
-90 -211 0
-132 -161 0
-132 -211 0
-161 -211 0
-3 -133 0
-3 -162 0
-3 -212 0
-133 -162 0
-133 -212 0
-162 -212 0
-68 -163 0
-68 -213 0
-163 -213 0
-69 -91 0
-69 -121 0
-91 -121 0
-4 -92 0
-5 -134 0
-5 -164 0
-134 -164 0
-135 -165 0
-21 -36 0
-21 -93 0
-21 -166 0
-36 -93 0
-36 -166 0
-93 -166 0
-37 -94 0
-37 -136 0
-37 -167 0
-94 -136 0
-94 -167 0
-136 -167 0
-38 -168 0
-95 -137 0
-95 -169 0
-137 -169 0
-6 -22 0
-6 -39 0
-6 -70 0
-6 -96 0
-6 -170 0
-22 -39 0
-22 -70 0
-22 -96 0
-22 -170 0
-39 -70 0
-39 -96 0
-39 -170 0
-70 -96 0
-70 -170 0
-96 -170 0
-7 -40 0
-7 -71 0
-7 -97 0
-7 -138 0
-7 -171 0
-40 -71 0
-40 -97 0
-40 -138 0
-40 -171 0
-71 -97 0
-71 -138 0
-71 -171 0
-97 -138 0
-97 -171 0
-138 -171 0
-8 -23 0
-8 -41 0
-8 -139 0
-8 -172 0
-23 -41 0
-23 -139 0
-23 -172 0
-41 -139 0
-41 -172 0
-139 -172 0
-42 -72 0
-42 -173 0
-72 -173 0
-9 -24 0
-9 -98 0
-24 -98 0
-10 -25 0
-10 -43 0
-10 -140 0
-10 -174 0
-25 -43 0
-25 -140 0
-25 -174 0
-43 -140 0
-43 -174 0
-140 -174 0
-73 -99 0
-73 -141 0
-73 -175 0
-99 -141 0
-99 -175 0
-141 -175 0
-100 -142 0
-100 -176 0
-100 -214 0
-142 -176 0
-142 -214 0
-176 -214 0
-26 -44 0
-26 -101 0
-26 -177 0
-26 -215 0
-44 -101 0
-44 -177 0
-44 -215 0
-101 -177 0
-101 -215 0
-177 -215 0
-45 -102 0
-45 -143 0
-45 -178 0
-45 -216 0
-102 -143 0
-102 -178 0
-102 -216 0
-143 -178 0
-143 -216 0
-178 -216 0
-27 -46 0
-27 -103 0
-27 -144 0
-27 -179 0
-27 -217 0
-46 -103 0
-46 -144 0
-46 -179 0
-46 -217 0
-103 -144 0
-103 -179 0
-103 -217 0
-144 -179 0
-144 -217 0
-179 -217 0
-28 -47 0
-28 -104 0
-28 -145 0
-28 -180 0
-47 -104 0
-47 -145 0
-47 -180 0
-104 -145 0
-104 -180 0
-145 -180 0
-105 -146 0
-105 -181 0
-105 -218 0
-146 -181 0
-146 -218 0
-181 -218 0
-74 -106 0
-74 -182 0
-74 -219 0
-106 -182 0
-106 -219 0
-182 -219 0
-11 -48 0
-11 -75 0
-11 -107 0
-11 -122 0
-11 -183 0
-11 -220 0
-48 -75 0
-48 -107 0
-48 -122 0
-48 -183 0
-48 -220 0
-75 -107 0
-75 -122 0
-75 -183 0
-75 -220 0
-107 -122 0
-107 -183 0
-107 -220 0
-122 -183 0
-122 -220 0
-183 -220 0
-12 -49 0
-12 -76 0
-12 -108 0
-12 -184 0
-12 -221 0
-49 -76 0
-49 -108 0
-49 -184 0
-49 -221 0
-76 -108 0
-76 -184 0
-76 -221 0
-108 -184 0
-108 -221 0
-184 -221 0
-13 -50 0
-13 -109 0
-13 -123 0
-13 -185 0
-13 -222 0
-50 -109 0
-50 -123 0
-50 -185 0
-50 -222 0
-109 -123 0
-109 -185 0
-109 -222 0
-123 -185 0
-123 -222 0
-185 -222 0
-51 -77 0
-51 -110 0
-51 -124 0
-51 -186 0
-77 -110 0
-77 -124 0
-77 -186 0
-110 -124 0
-110 -186 0
-124 -186 0
-14 -52 0
-29 -78 0
-29 -111 0
-29 -188 0
-78 -111 0
-78 -188 0
-111 -188 0
-79 -112 0
-79 -147 0
-79 -189 0
-112 -147 0
-112 -189 0
-147 -189 0
-30 -113 0
-30 -148 0
-30 -190 0
-113 -148 0
-113 -190 0
-148 -190 0
-31 -80 0
-31 -114 0
-31 -149 0
-31 -191 0
-80 -114 0
-80 -149 0
-80 -191 0
-114 -149 0
-114 -191 0
-149 -191 0
-81 -115 0
-81 -150 0
-81 -192 0
-115 -150 0
-115 -192 0
-150 -192 0
-53 -82 0
-53 -193 0
-53 -223 0
-82 -193 0
-82 -223 0
-193 -223 0
-194 -224 0
-15 -32 0
-15 -54 0
-15 -125 0
-15 -195 0
-15 -225 0
-32 -54 0
-32 -125 0
-32 -195 0
-32 -225 0
-54 -125 0
-54 -195 0
-54 -225 0
-125 -195 0
-125 -225 0
-195 -225 0
-33 -55 0
-33 -83 0
-33 -126 0
-33 -196 0
-55 -83 0
-55 -126 0
-55 -196 0
-83 -126 0
-83 -196 0
-126 -196 0
-16 -34 0
-16 -197 0
-34 -197 0
-17 -35 0
-17 -56 0
-17 -198 0
-35 -56 0
-35 -198 0
-56 -198 0
-84 -127 0
-84 -199 0
-84 -226 0
-127 -199 0
-127 -226 0
-199 -226 0
-57 -116 0
-57 -151 0
-57 -200 0
-57 -227 0
-116 -151 0
-116 -200 0
-116 -227 0
-151 -200 0
-151 -227 0
-200 -227 0
-58 -117 0
-59 -118 0
-59 -152 0
-59 -201 0
-59 -228 0
-118 -152 0
-118 -201 0
-118 -228 0
-152 -201 0
-152 -228 0
-201 -228 0
-60 -119 0
-60 -153 0
-60 -202 0
-119 -153 0
-119 -202 0
-153 -202 0
-61 -154 0
-61 -203 0
-154 -203 0
-62 -85 0
-62 -155 0
-62 -204 0
-62 -229 0
-85 -155 0
-85 -204 0
-85 -229 0
-155 -204 0
-155 -229 0
-204 -229 0
-18 -63 0
-18 -86 0
-18 -128 0
-63 -86 0
-63 -128 0
-86 -128 0
-19 -64 0
-19 -129 0
-19 -156 0
-19 -205 0
-19 -230 0
-64 -129 0
-64 -156 0
-64 -205 0
-64 -230 0
-129 -156 0
-129 -205 0
-129 -230 0
-156 -205 0
-156 -230 0
-205 -230 0
-206 -231 0
-65 -87 0
-65 -130 0
-65 -157 0
-65 -207 0
-87 -130 0
-87 -157 0
-87 -207 0
-130 -157 0
-130 -207 0
-157 -207 0
-20 -158 0
-20 -208 0
-158 -208 0
-88 -131 0
-88 -159 0
-88 -209 0
-88 -232 0
-131 -159 0
-131 -209 0
-131 -232 0
-159 -209 0
-159 -232 0
-209 -232 0
-1 -6 0
-1 -21 0
-1 -22 0
-1 -36 0
-1 -39 0
-6 -21 0
-6 -22 0
-6 -36 0
-6 -39 0
-21 -22 0
-21 -36 0
-21 -39 0
-22 -36 0
-22 -39 0
-36 -39 0
-2 -7 0
-2 -37 0
-2 -40 0
-7 -37 0
-7 -40 0
-37 -40 0
-3 -8 0
-3 -23 0
-3 -41 0
-8 -23 0
-8 -41 0
-23 -41 0
-38 -42 0
-4 -9 0
-4 -24 0
-9 -24 0
-5 -10 0
-5 -25 0
-5 -43 0
-10 -25 0
-10 -43 0
-25 -43 0
-11 -26 0
-11 -29 0
-11 -44 0
-11 -48 0
-26 -29 0
-26 -44 0
-26 -48 0
-29 -44 0
-29 -48 0
-44 -48 0
-12 -45 0
-12 -49 0
-45 -49 0
-13 -27 0
-13 -30 0
-13 -46 0
-13 -50 0
-27 -30 0
-27 -46 0
-27 -50 0
-30 -46 0
-30 -50 0
-46 -50 0
-28 -31 0
-28 -47 0
-28 -51 0
-31 -47 0
-31 -51 0
-47 -51 0
-14 -52 0
-53 -57 0
-53 -62 0
-57 -62 0
-18 -58 0
-18 -63 0
-58 -63 0
-15 -19 0
-15 -32 0
-15 -54 0
-15 -59 0
-15 -64 0
-19 -32 0
-19 -54 0
-19 -59 0
-19 -64 0
-32 -54 0
-32 -59 0
-32 -64 0
-54 -59 0
-54 -64 0
-59 -64 0
-33 -55 0
-33 -60 0
-33 -65 0
-55 -60 0
-55 -65 0
-60 -65 0
-16 -20 0
-16 -34 0
-20 -34 0
-17 -35 0
-17 -56 0
-17 -61 0
-35 -56 0
-35 -61 0
-56 -61 0
-66 -70 0
-66 -89 0
-66 -93 0
-66 -96 0
-66 -120 0
-70 -89 0
-70 -93 0
-70 -96 0
-70 -120 0
-89 -93 0
-89 -96 0
-89 -120 0
-93 -96 0
-93 -120 0
-96 -120 0
-67 -71 0
-67 -90 0
-67 -94 0
-67 -97 0
-71 -90 0
-71 -94 0
-71 -97 0
-90 -94 0
-90 -97 0
-94 -97 0
-68 -72 0
-69 -91 0
-69 -121 0
-91 -121 0
-92 -98 0
-73 -95 0
-73 -99 0
-95 -99 0
-74 -100 0
-74 -106 0
-100 -106 0
-75 -78 0
-75 -101 0
-75 -107 0
-75 -111 0
-75 -122 0
-78 -101 0
-78 -107 0
-78 -111 0
-78 -122 0
-101 -107 0
-101 -111 0
-101 -122 0
-107 -111 0
-107 -122 0
-111 -122 0
-76 -79 0
-76 -102 0
-76 -108 0
-76 -112 0
-79 -102 0
-79 -108 0
-79 -112 0
-102 -108 0
-102 -112 0
-108 -112 0
-103 -109 0
-103 -113 0
-103 -123 0
-109 -113 0
-109 -123 0
-113 -123 0
-77 -80 0
-77 -104 0
-77 -110 0
-77 -114 0
-77 -124 0
-80 -104 0
-80 -110 0
-80 -114 0
-80 -124 0
-104 -110 0
-104 -114 0
-104 -124 0
-110 -114 0
-110 -124 0
-114 -124 0
-81 -105 0
-81 -115 0
-105 -115 0
-82 -85 0
-82 -116 0
-85 -116 0
-86 -117 0
-86 -128 0
-117 -128 0
-118 -125 0
-118 -129 0
-125 -129 0
-83 -87 0
-83 -119 0
-83 -126 0
-83 -130 0
-87 -119 0
-87 -126 0
-87 -130 0
-119 -126 0
-119 -130 0
-126 -130 0
-84 -88 0
-84 -127 0
-84 -131 0
-88 -127 0
-88 -131 0
-127 -131 0
-135 -165 0
-160 -166 0
-160 -170 0
-160 -210 0
-166 -170 0
-166 -210 0
-170 -210 0
-132 -136 0
-132 -138 0
-132 -161 0
-132 -167 0
-132 -171 0
-132 -211 0
-136 -138 0
-136 -161 0
-136 -167 0
-136 -171 0
-136 -211 0
-138 -161 0
-138 -167 0
-138 -171 0
-138 -211 0
-161 -167 0
-161 -171 0
-161 -211 0
-167 -171 0
-167 -211 0
-171 -211 0
-133 -139 0
-133 -162 0
-133 -172 0
-133 -212 0
-139 -162 0
-139 -172 0
-139 -212 0
-162 -172 0
-162 -212 0
-172 -212 0
-163 -168 0
-163 -173 0
-163 -213 0
-168 -173 0
-168 -213 0
-173 -213 0
-134 -140 0
-134 -164 0
-134 -174 0
-140 -164 0
-140 -174 0
-164 -174 0
-137 -141 0
-137 -169 0
-137 -175 0
-141 -169 0
-141 -175 0
-169 -175 0
-142 -176 0
-142 -182 0
-142 -214 0
-142 -219 0
-176 -182 0
-176 -214 0
-176 -219 0
-182 -214 0
-182 -219 0
-214 -219 0
-177 -183 0
-177 -188 0
-177 -215 0
-177 -220 0
-183 -188 0
-183 -215 0
-183 -220 0
-188 -215 0
-188 -220 0
-215 -220 0
-143 -147 0
-143 -178 0
-143 -184 0
-143 -189 0
-143 -216 0
-143 -221 0
-147 -178 0
-147 -184 0
-147 -189 0
-147 -216 0
-147 -221 0
-178 -184 0
-178 -189 0
-178 -216 0
-178 -221 0
-184 -189 0
-184 -216 0
-184 -221 0
-189 -216 0
-189 -221 0
-216 -221 0
-144 -148 0
-144 -179 0
-144 -185 0
-144 -190 0
-144 -217 0
-144 -222 0
-148 -179 0
-148 -185 0
-148 -190 0
-148 -217 0
-148 -222 0
-179 -185 0
-179 -190 0
-179 -217 0
-179 -222 0
-185 -190 0
-185 -217 0
-185 -222 0
-190 -217 0
-190 -222 0
-217 -222 0
-145 -149 0
-145 -180 0
-145 -186 0
-145 -191 0
-149 -180 0
-149 -186 0
-149 -191 0
-180 -186 0
-180 -191 0
-186 -191 0
-146 -150 0
-146 -181 0
-146 -192 0
-146 -218 0
-150 -181 0
-150 -192 0
-150 -218 0
-181 -192 0
-181 -218 0
-192 -218 0
-151 -155 0
-151 -193 0
-151 -200 0
-151 -204 0
-151 -223 0
-151 -227 0
-151 -229 0
-155 -193 0
-155 -200 0
-155 -204 0
-155 -223 0
-155 -227 0
-155 -229 0
-193 -200 0
-193 -204 0
-193 -223 0
-193 -227 0
-193 -229 0
-200 -204 0
-200 -223 0
-200 -227 0
-200 -229 0
-204 -223 0
-204 -227 0
-204 -229 0
-223 -227 0
-223 -229 0
-227 -229 0
-194 -224 0
-152 -156 0
-152 -195 0
-152 -201 0
-152 -205 0
-152 -225 0
-152 -228 0
-152 -230 0
-156 -195 0
-156 -201 0
-156 -205 0
-156 -225 0
-156 -228 0
-156 -230 0
-195 -201 0
-195 -205 0
-195 -225 0
-195 -228 0
-195 -230 0
-201 -205 0
-201 -225 0
-201 -228 0
-201 -230 0
-205 -225 0
-205 -228 0
-205 -230 0
-225 -228 0
-225 -230 0
-228 -230 0
-206 -231 0
-153 -157 0
-153 -196 0
-153 -202 0
-153 -207 0
-157 -196 0
-157 -202 0
-157 -207 0
-196 -202 0
-196 -207 0
-202 -207 0
-158 -197 0
-158 -208 0
-197 -208 0
-154 -198 0
-154 -203 0
-198 -203 0
-159 -199 0
-159 -209 0
-159 -226 0
-159 -232 0
-199 -209 0
-199 -226 0
-199 -232 0
-209 -226 0
-209 -232 0
-226 -232 0
1 2 3 4 5 0
6 7 8 9 10 0
11 12 13 14 0
15 16 17 0
18 19 20 0
21 0
22 23 24 25 0
26 27 28 0
29 30 31 0
32 33 34 35 0
36 37 38 0
39 40 41 42 43 0
44 45 46 47 0
48 49 50 51 52 0
53 54 55 56 0
57 58 59 60 61 0
62 63 64 65 0
66 67 68 69 0
70 71 72 73 0
74 75 76 77 0
78 79 80 81 0
82 83 84 0
85 86 87 88 0
89 90 91 92 0
93 94 95 0
96 97 98 99 0
100 101 102 103 104 105 0
106 107 108 109 110 0
111 112 113 114 115 0
116 117 118 119 0
120 121 0
122 123 124 0
125 126 127 0
128 129 130 131 0
132 133 134 0
135 136 137 0
138 139 140 141 0
142 143 144 145 146 0
147 148 149 150 0
151 152 153 154 0
155 156 157 158 159 0
160 161 162 163 164 0
165 166 167 168 169 0
170 171 172 173 174 175 0
176 177 178 179 180 181 0
182 183 184 185 186 187 0
188 189 190 191 192 0
193 194 195 196 197 198 199 0
200 201 202 203 0
204 205 206 207 208 209 0
210 211 212 213 0
214 215 216 217 218 0
219 220 221 222 0
223 224 225 226 0
227 228 0
229 230 231 232 0
1 6 11 18 0
2 7 12 0
3 8 13 15 19 0
4 9 16 20 0
5 10 14 17 0
21 22 26 29 0
23 27 30 32 0
28 31 33 0
24 34 0
25 35 0
53 57 62 0
36 39 44 48 58 63 0
37 40 45 49 0
41 46 50 54 59 64 0
38 42 0
47 51 55 60 65 0
43 52 56 61 0
74 82 85 0
66 70 75 78 86 0
67 71 76 79 0
68 72 0
69 77 80 83 87 0
73 81 84 88 0
100 106 116 0
89 93 96 101 107 111 117 0
90 94 97 102 108 112 0
103 109 113 118 0
91 104 110 114 119 0
92 98 0
95 99 105 115 0
120 122 128 0
123 125 129 0
121 124 126 130 0
127 131 0
135 142 151 155 0
132 136 138 143 147 0
133 139 144 148 152 156 0
145 149 153 157 0
158 0
134 140 154 0
137 141 146 150 159 0
165 176 182 193 200 204 0
160 166 170 177 183 188 0
161 167 171 178 184 189 194 0
162 172 179 185 190 195 201 205 0
163 168 173 206 0
180 186 191 196 202 207 0
187 197 208 0
164 174 198 203 0
169 175 181 192 199 209 0
214 219 223 227 229 0
210 215 220 0
211 216 221 224 0
212 217 222 225 228 230 0
213 231 0
218 226 232 0
1 66 89 120 160 210 0
2 67 90 132 161 211 0
3 133 162 212 0
68 163 213 0
69 91 121 0
4 92 0
5 134 164 0
135 165 0
21 36 93 166 0
37 94 136 167 0
38 168 0
95 137 169 0
6 22 39 70 96 170 0
7 40 71 97 138 171 0
8 23 41 139 172 0
42 72 173 0
9 24 98 0
10 25 43 140 174 0
73 99 141 175 0
100 142 176 214 0
26 44 101 177 215 0
45 102 143 178 216 0
27 46 103 144 179 217 0
28 47 104 145 180 0
105 146 181 218 0
74 106 182 219 0
11 48 75 107 122 183 220 0
12 49 76 108 184 221 0
13 50 109 123 185 222 0
51 77 110 124 186 0
187 0
14 52 0
29 78 111 188 0
79 112 147 189 0
30 113 148 190 0
31 80 114 149 191 0
81 115 150 192 0
53 82 193 223 0
194 224 0
15 32 54 125 195 225 0
33 55 83 126 196 0
16 34 197 0
17 35 56 198 0
84 127 199 226 0
57 116 151 200 227 0
58 117 0
59 118 152 201 228 0
60 119 153 202 0
61 154 203 0
62 85 155 204 229 0
18 63 86 128 0
19 64 129 156 205 230 0
206 231 0
65 87 130 157 207 0
20 158 208 0
88 131 159 209 232 0
1 6 21 22 36 39 0
2 7 37 40 0
3 8 23 41 0
38 42 0
4 9 24 0
5 10 25 43 0
11 26 29 44 48 0
12 45 49 0
13 27 30 46 50 0
28 31 47 51 0
14 52 0
53 57 62 0
18 58 63 0
15 19 32 54 59 64 0
33 55 60 65 0
16 20 34 0
17 35 56 61 0
66 70 89 93 96 120 0
67 71 90 94 97 0
68 72 0
69 91 121 0
92 98 0
73 95 99 0
74 100 106 0
75 78 101 107 111 122 0
76 79 102 108 112 0
103 109 113 123 0
77 80 104 110 114 124 0
81 105 115 0
82 85 116 0
86 117 128 0
118 125 129 0
83 87 119 126 130 0
84 88 127 131 0
135 165 0
160 166 170 210 0
132 136 138 161 167 171 211 0
133 139 162 172 212 0
163 168 173 213 0
134 140 164 174 0
137 141 169 175 0
142 176 182 214 219 0
177 183 188 215 220 0
143 147 178 184 189 216 221 0
144 148 179 185 190 217 222 0
145 149 180 186 191 0
187 0
146 150 181 192 218 0
151 155 193 200 204 223 227 229 0
194 224 0
152 156 195 201 205 225 228 230 0
206 231 0
153 157 196 202 207 0
158 197 208 0
154 198 203 0
159 199 209 226 232 0
